PARAMETER_FILE = even/even_complete_graph_new/par/random172.par
PROBLEM_FILE = even/even_complete_graph_new/mat/random172.tsp
Successes/Runs = 0/10
Cost.min = 967, Cost.avg = 967.00, Cost.max = 967
Gap.min = 0.0000%, Gap.avg = 0.0000%, Gap.max = 0.0000%
Trials.min = 1000, Trials.avg = 1000.0, Trials.max = 1000
Time.min = 0.90 sec., Time.avg = 1.56 sec., Time.max = 2.36 sec.
Time.total = 15.75 sec.
